============================[ Problem Statistics ]=============================|                                                                             ||  Number of variables:          4242                                         ||  Number of clauses:           10153                                         ||  Parse time:                   0.55 s                                       ||                                                                             |============================[ Search Statistics ]==============================| Conflicts |          ORIGINAL         |          LEARNT          | Progress ||           |    Vars  Clauses Literals |    Limit  Clauses Lit/Cl |          |===============================================================================|       100 |    1591     6358   862979 |     2331      100     53 | 62.501 % ||       250 |    1591     6358   862979 |     2564      250     75 | 62.495 % |===============================================================================restarts              : 3conflicts             : 301            (367 /sec)decisions             : 567            (0.00 % random) (691 /sec)propagations          : 11855          (14440 /sec)conflict literals     : 23754          (94.74 % deleted)CPU time              : 0.821 sSATISFIABLE